200
75 75
1 60 901
2 60 760
3 59 142
4 59 966
5 59 144
6 59 958
7 59 497
8 59 556
9 59 248
10 58 7
11 58 807
12 58 708
13 58 85
14 57 636
15 57 535
16 57 165
17 56 401
18 56 527
19 56 775
20 56 271
21 56 523
22 56 39
23 56 205
24 56 237
25 56 967
26 55 872
27 55 535
28 55 315
29 55 559
30 55 847
31 55 161
32 54 935
33 54 332
34 54 941
35 53 884
36 53 359
37 53 167
38 53 347
39 53 810
40 52 437
41 52 520
42 52 727
43 52 69
44 52 339
45 52 893
46 51 744
47 51 677
48 51 485
49 51 606
50 51 765
51 51 421
52 50 731
53 50 576
54 50 789
55 50 810
56 49 939
57 49 282
58 49 144
59 49 665
60 49 311
61 49 498
62 48 53
63 48 865
64 47 686
65 47 240
66 47 158
67 47 926
68 47 465
69 46 614
70 45 482
71 45 491
72 45 104
73 44 761
74 44 585
75 44 21
76 43 289
77 43 802
78 43 570
79 43 275
80 42 454
81 42 575
82 42 905
83 41 11
84 41 326
85 41 465
86 40 606
87 40 486
88 39 911
89 39 6
90 39 762
91 38 348
92 37 655
93 36 343
94 36 940
95 36 820
96 35 961
97 34 245
98 34 862
99 34 971
100 33 368
101 33 426
102 33 933
103 33 661
104 33 452
105 33 831
106 33 667
107 32 651
108 32 677
109 32 112
110 32 221
111 32 972
112 32 685
113 31 169
114 31 923
115 31 928
116 31 254
117 31 59
118 30 268
119 30 188
120 30 820
121 30 990
122 29 921
123 29 794
124 29 367
125 29 378
126 29 190
127 29 162
128 29 779
129 28 621
130 28 612
131 28 863
132 28 271
133 28 83
134 28 146
135 28 230
136 27 145
137 27 15
138 27 373
139 27 166
140 27 176
141 27 553
142 26 659
143 26 849
144 26 254
145 26 950
146 26 244
147 26 198
148 26 489
149 26 202
150 26 334
151 26 276
152 25 828
153 25 387
154 25 721
155 24 725
156 24 623
157 24 848
158 24 783
159 23 326
160 23 749
161 23 71
162 23 482
163 22 700
164 22 27
165 22 888
166 22 751
167 21 78
168 21 205
169 21 153
170 21 942
171 21 9
172 21 723
173 21 285
174 19 333
175 19 429
176 19 913
177 18 421
178 18 944
179 18 952
180 18 766
181 18 905
182 18 937
183 18 653
184 18 389
185 17 245
186 17 756
187 17 418
188 17 616
189 17 633
190 17 758
191 16 880
192 16 295
193 16 194
194 15 265
195 15 102
196 15 612
197 15 822
198 15 610
199 15 87
200 15 60
